Route #1: 35 3 19 48 33
Route #2: 41 27 31 32 37 12 8
Route #3: 6 7 28 26 43 11
Route #4: 39 29 13 42 14 4
Route #5: 18
Route #6: 17 10 34 38 2 16 40 36 5
Route #7: 50 23 47 45 30 24 22 46 25
Route #8: 21 44 20 1 9 49 15
Cost 1016
Time 0.065087
